20
99.0
0 19 22.45 13.55
1 18 23.68 15.12
2 17 16.06 13.41
3 16 24.45 15.58
4 15 20.47 14.34
5 14 20.02 15.28
6 13 24.73 15.64
7 12 20.85 15.24
8 11 19.32 15.99
9 10 31.96 18.63
10 9 24.83 19.26
11 8 22.55 18.32
12 7 23.04 20.23
13 6 3.13 31.31
14 5 3.15 31.47
15 4 13.45 12.09
16 3 23.24 13.49
17 2 27.12 10.38
18 1 43.62 17.31
